
  10    2
   3    3

   0   0   0   7 2 3 5 6 7 8 9 
   1   1   1   1 4 
   2   1   1   1 4 
   1   2   0   1 10
   1   1   1   1 10
   2   2   2   1 10
   2   1   0   1 10
   1   1   0   1 10
   1   2   0   1 10
   0   0   0   0 
